coords = array2d(1..24, 1..2, [20, 4, 951, 235, 146, 297, 245, 559, 66, 174,
    197, 345, 685, 127, 351, 947, 655, 887, 834, 780, 635, 188, 500,
    485, 727, 365, 192, 163, 532, 581, 934, 929, 177, 7, 692, 938,
    622, 325, 616, 490, 976, 274, 679, 565, 593, 689, 467, 896]);

n = 24;

